26953.93 0
0 87 19 50 6 40 124 118 38 68 76 128 114 138 143 147 142 9 113 25 45 104 31 36 56 103 120 108 59 64 41 83 81 131 69 11 125 49 99 5 135 132 32 141 72 66 29 102 17 55 121 37 146 8 84 14 123 80 137 75 54 16 82 57 62 13 105 4 46 116 63 130 67 43 21 149 93 78 139 42 48 100 53 140 144 96 18 90 12 127 58 30 3 61 92 98 112 28 35 26 23 110 51 133 65 148 95 91 89 85 106 33 119 15 22 97 34 1 134 136 74 109 10 101 94 86 129 7 73 44 39 47 117 52 60 77 88 145 115 24 122 126 2 20 79 111 71 27 70 107